c weights 1 0 0 1 1 1 1 1 1 1 1 1 1 1 0.05 0.95 1 1 0.03 0.97 1 1 1 1 1 1 1 1 1 1 1 1 0.05 0.95 1 1 0.05 0.95 1 1 1 1 1 1 0.04 0.96 1 1 1 1 0.1 0.9 0.97 0.03 0.2 0.8 0.01 0.99 0.01 0.99 0.01 0.99 0.01 0.99 0.01 0.99 0.9 0.1 0.01 0.99 0.01 0.99 0.01 0.99 0.93 0.07 0.01 0.99 0.01 0.99 0.01 0.99 0.01 0.99 0.97 0.03 0.45 0.55 0.01 0.99 0.01 0.99 0.01 0.99 0.93 0.07 0.01 0.99 0.01 0.99 0.01 0.99 0.01 0.99 0.01 0.99 0.01 0.99 0.93 0.07 0.01 0.99 0.01 0.99 0.9 0.1 0.6 0.4 0.97 0.03 0.97 0.03 0.01 0.99 0.59 0.41 0.01 0.99 0.01 0.99 0.01 0.99 0.01 0.99 0.01 0.99 0.97 0.03 0.01 0.99 0.01 0.99 0.01 0.99 0.01 0.99 0.01 0.99 0.01 0.99 0.01 0.99 0.01 0.99 0.01 0.99 0.97 0.03 0.97 0.03 0.01 0.99 0.01 0.99 0.4 0.6 
p cnf 83 130
1 2 0
-1 -2 0
3 4 5 6  0
-3 -4 0
-3 -5 0
-3 -6 0
-4 -5 0
-4 -6 0
-5 -6 0
7 9 11  0
-7 -9 0
-7 -11 0
-9 -11 0
7 -8  0
9 -10 8  0
11 8 10  0
12 13 14 15  0
-12 -13 0
-12 -14 0
-12 -15 0
-13 -14 0
-13 -15 0
-14 -15 0
16 18 20  0
-16 -18 0
-16 -20 0
-18 -20 0
16 -17  0
18 -19 17  0
20 17 19  0
21 22 0
-21 -22 0
-23 21 0
23 22 0
24 25 0
-24 -25 0
-26 24 0
26 25 0
-11 -22 -3 -27 1  0
-11 -22 -3 27 2  0
-9 -21 -6 -28 1  0
-9 -21 -6 28 2  0
-7 -21 -3 -29 1  0
-7 -21 -3 29 2  0
-24 -15 -30 3  0
-24 -15 30 -31 4  0
-24 -15 30 31 -32 5  0
-24 -15 30 31 32 6  0
-11 -21 -5 -33 1  0
-11 -21 -5 33 2  0
-7 -21 -6 -34 1  0
-7 -21 -6 34 2  0
-9 -22 -3 -35 1  0
-9 -22 -3 35 2  0
-11 -22 -5 -36 1  0
-11 -22 -5 36 2  0
-20 -37 12  0
-20 37 -38 13  0
-20 37 38 -39 14  0
-20 37 38 39 15  0
-25 -15 -40 3  0
-25 -15 40 -41 4  0
-25 -15 40 41 -42 5  0
-25 -15 40 41 42 6  0
-7 -22 -5 -43 1  0
-7 -22 -5 43 2  0
-11 -21 -4 -44 1  0
-11 -21 -4 44 2  0
-9 -22 -6 -45 1  0
-9 -22 -6 45 2  0
-18 -46 12  0
-18 46 -47 13  0
-18 46 47 -48 14  0
-18 46 47 48 15  0
-25 -14 -49 3  0
-25 -14 49 -50 4  0
-25 -14 49 50 -51 5  0
-25 -14 49 50 51 6  0
-24 -14 -52 3  0
-24 -14 52 -53 4  0
-24 -14 52 53 -54 5  0
-24 -14 52 53 54 6  0
-16 -55 12  0
-16 55 -56 13  0
-16 55 56 -57 14  0
-16 55 56 57 15  0
-9 -22 -4 -58 1  0
-9 -22 -4 58 2  0
-9 -22 -5 -59 1  0
-9 -22 -5 59 2  0
-7 -22 -4 -60 1  0
-7 -22 -4 60 2  0
-11 -22 -6 -61 1  0
-11 -22 -6 61 2  0
-7 -22 -3 -62 1  0
-7 -22 -3 62 2  0
-9 -21 -4 -63 1  0
-9 -21 -4 63 2  0
-11 -21 -3 -64 1  0
-11 -21 -3 64 2  0
-9 -21 -3 -65 1  0
-9 -21 -3 65 2  0
-7 -21 -5 -66 1  0
-7 -21 -5 66 2  0
-7 -22 -6 -67 1  0
-7 -22 -6 67 2  0
-25 -13 -68 3  0
-25 -13 68 -69 4  0
-25 -13 68 69 -70 5  0
-25 -13 68 69 70 6  0
-9 -21 -5 -71 1  0
-9 -21 -5 71 2  0
-24 -13 -72 3  0
-24 -13 72 -73 4  0
-24 -13 72 73 -74 5  0
-24 -13 72 73 74 6  0
-7 -21 -4 -75 1  0
-7 -21 -4 75 2  0
-11 -21 -6 -76 1  0
-11 -21 -6 76 2  0
-25 -12 -77 3  0
-25 -12 77 -78 4  0
-25 -12 77 78 -79 5  0
-25 -12 77 78 79 6  0
-24 -12 -80 3  0
-24 -12 80 -81 4  0
-24 -12 80 81 -82 5  0
-24 -12 80 81 82 6  0
-11 -22 -4 -83 1  0
-11 -22 -4 83 2  0
